solving instance uflp nldep orlib 111 sinabc1
Set parameter TokenServer to value "licences.gerad.lan"
Set parameter MIPGap to value 1e-06
Set parameter FuncPieceError to value 1e-06
Set parameter Threads to value 1
Set parameter FuncPieces to value -2
Set parameter TimeLimit to value 3600
Gurobi Optimizer version 12.0.2 build v12.0.2rc0 (linux64 - "AlmaLinux 9.6 (Sage Margay)")

CPU model: Intel(R) Xeon(R) Gold 6258R CPU @ 2.70GHz, instruction set [SSE2|AVX|AVX2|AVX512]
Thread count: 56 physical cores, 56 logical processors, using up to 1 threads

Non-default parameters:
TimeLimit  3600
MIPGap  1e-06
Threads  1
FuncPieces  -2
FuncPieceError  1e-06

Optimize a model with 2750 rows, 2850 columns and 10399 nonzeros
Model fingerprint: 0x88fd7f96
Model has 100 function constraints treated as nonlinear
  50 POW, 50 SIN
Variable types: 2800 continuous, 50 integer (50 binary)
Coefficient statistics:
  Matrix range     [2e-05, 1e+04]
  Objective range  [1e+00, 1e+06]
  Bounds range     [1e+00, 1e+10]
  RHS range        [1e+00, 1e+00]
Warning: Model contains large bounds
         Consider reformulating model or setting NumericFocus parameter
         to avoid numerical issues.
Presolve removed 2552 rows and 152 columns
Presolve time: 0.01s
Presolved: 448 rows, 2699 columns, 5795 nonzeros
Presolved model has 49 quadratic objective terms
Presolved model has 50 nonlinear constraint(s)

Solving non-convex MINLP

Variable types: 2699 continuous, 0 integer (0 binary)

Root relaxation: objective 6.246738e+05, 497 iterations, 0.00 seconds (0.00 work units)

    Nodes    |    Current Node    |     Objective Bounds      |     Work
 Expl Unexpl |  Obj  Depth IntInf | Incumbent    BestBd   Gap | It/Node Time

     0     0 624673.833    0   50          - 624673.833      -     -    0s
     0     0 624673.833    0   50          - 624673.833      -     -    0s
H    0     0                    625517.42412 624673.833  0.13%     -    0s
     0     2 625514.397    0   45 625517.424 625514.397  0.00%     -    0s
*    1     1               1    625517.42370 625514.397  0.00%   300    0s

Explored 3 nodes (797 simplex iterations) in 0.60 seconds (0.26 work units)
Thread count was 1 (of 56 available processors)

Solution count 1: 625517 

Optimal solution found (tolerance 1.00e-06)
Best objective 6.255174237011e+05, best bound 6.255174237011e+05, gap 0.0000%

User-callback calls 413, time in user-callback 0.00 sec
reading orlib data file ../../../../../instances/uflp/orlib/cap111.txt
primal_bound = 625517.4237010841, dual_bound = 625517.4237010839, gap = 3.7222087640061065e-14, time = 0.61
OPTIMAL LOCATIONS:
y[1] = 1.0
y[2] = 1.0
y[3] = 1.0
y[4] = 1.0
y[5] = 1.0
y[6] = 1.0
y[7] = 1.0
y[8] = 1.0
y[9] = 1.0
y[10] = 1.0
y[11] = 1.0
y[12] = 1.0
y[13] = 1.0
y[14] = 1.0
y[15] = 1.0
y[16] = 1.0
y[17] = 1.0
y[18] = 1.0
y[19] = 1.0
y[20] = 1.0
y[21] = 1.0
y[22] = 1.0
y[23] = 1.0
y[24] = 1.0
y[25] = 1.0
y[26] = 1.0
y[27] = 1.0
y[28] = 1.0
y[29] = 1.0
y[30] = 1.0
y[31] = 1.0
y[32] = 1.0
y[33] = 1.0
y[34] = 1.0
y[35] = 1.0
y[36] = 1.0
y[37] = 1.0
y[38] = 1.0
y[39] = 1.0
y[40] = 1.0
y[41] = 1.0
y[42] = 1.0
y[43] = 1.0
y[44] = 1.0
y[45] = 1.0
y[46] = 1.0
y[47] = 1.0
y[48] = 1.0
y[49] = 1.0
y[50] = 1.0
OPTIMAL WAREHOUSING:
f[1] = 146.0
f[2] = 87.0
f[3] = 672.0
f[4] = 1337.0
f[5] = 31.0
f[6] = 559.0
f[7] = 2370.0
f[8] = 1089.0
f[9] = 33.0
f[10] = 32.0
f[11] = 5495.0
f[12] = 904.0
f[13] = 1466.0
f[14] = 143.0
f[15] = 615.0
f[16] = 564.0
f[17] = 226.0
f[18] = 3016.0
f[19] = 253.0
f[20] = 195.0
f[21] = 38.0
f[22] = 807.0
f[23] = 551.0
f[24] = 304.0
f[25] = 814.0
f[26] = 337.0
f[27] = 4368.0
f[28] = 577.0
f[29] = 482.0
f[30] = 495.0
f[31] = 231.0
f[32] = 322.0
f[33] = 685.0
f[34] = 12912.0
f[35] = 325.0
f[36] = 366.0
f[37] = 3671.0
f[38] = 2213.0
f[39] = 705.0
f[40] = 328.0
f[41] = 1681.0
f[42] = 1117.0
f[43] = 275.0
f[44] = 500.0
f[45] = 2241.0
f[46] = 733.0
f[47] = 222.0
f[48] = 49.0
f[49] = 1464.0
f[50] = 222.0
OPTIMAL WAREHOUSING COSTS:
nlobj[1] = 0.11625177784494078
nlobj[2] = 0.04127945225811277
nlobj[3] = 2.4625407625688664
nlobj[4] = 9.744412662848061
nlobj[5] = 0.005241065658098094
nlobj[6] = 1.7040576905066502
nlobj[7] = 30.588228720213262
nlobj[8] = 6.465724197070996
nlobj[9] = 0.005939147132207672
nlobj[10] = 0.00558465220039611
nlobj[11] = 163.37953569619404
nlobj[12] = 4.455947583286461
nlobj[13] = 11.714392548917104
nlobj[14] = 0.11152340599525366
nlobj[15] = 2.0625452832223834
nlobj[16] = 1.7346758279757957
nlobj[17] = 0.27855265362499476
nlobj[18] = 49.490811774326296
nlobj[19] = 0.3490840879748807
nlobj[20] = 0.20737729936800534
nlobj[21] = 0.007875231594352156
nlobj[22] = 3.551152455407427
nlobj[23] = 0.0
nlobj[24] = 0.5040028095142682
nlobj[25] = 3.613014335274266
nlobj[26] = 0.6193599170554168
nlobj[27] = 103.53613554335685
nlobj[28] = 1.815557047449575
nlobj[29] = 1.2669628665498698
nlobj[30] = 1.3362227958892436
nlobj[31] = 0.2910141853433373
nlobj[32] = 0.5654525058997709
nlobj[33] = 2.5587276746267316
nlobj[34] = 870.3747113694405
nlobj[35] = 0.5760377736138087
nlobj[36] = 0.7305386170461937
nlobj[37] = 73.23733697292585
nlobj[38] = 26.67486239081482
nlobj[39] = 2.7103043694671696
nlobj[40] = 0.5867211065406474
nlobj[41] = 15.399631198489724
nlobj[42] = 6.802377670416722
nlobj[43] = 0.41243272819150667
nlobj[44] = 1.3633516559699772
nlobj[45] = 27.35325549886637
nlobj[46] = 2.9298352628311135
nlobj[47] = 0.2687798342971815
nlobj[48] = 0.013094479027818563
nlobj[49] = 11.682466719141015
nlobj[50] = 0.2687797798750862
OPTIMAL ASSIGNMENTS:
x[1, 1] = 1.0
x[2, 2] = 1.0
x[3, 3] = 1.0
x[4, 4] = 1.0
x[5, 5] = 1.0
x[6, 6] = 1.0
x[7, 7] = 1.0
x[8, 8] = 1.0
x[9, 9] = 1.0
x[10, 10] = 1.0
x[11, 11] = 1.0
x[12, 12] = 1.0
x[13, 13] = 1.0
x[14, 14] = 1.0
x[15, 15] = 1.0
x[16, 16] = 1.0
x[17, 17] = 1.0
x[18, 18] = 1.0
x[19, 19] = 1.0
x[20, 20] = 1.0
x[21, 21] = 1.0
x[22, 22] = 1.0
x[23, 23] = 1.0
x[24, 24] = 1.0
x[25, 25] = 1.0
x[26, 26] = 1.0
x[27, 27] = 1.0
x[28, 28] = 1.0
x[29, 29] = 1.0
x[30, 30] = 1.0
x[31, 31] = 1.0
x[32, 32] = 1.0
x[33, 33] = 1.0
x[34, 34] = 1.0
x[35, 35] = 1.0
x[36, 36] = 1.0
x[37, 37] = 1.0
x[38, 38] = 1.0
x[39, 39] = 1.0
x[40, 40] = 1.0
x[41, 41] = 1.0
x[42, 42] = 1.0
x[43, 43] = 1.0
x[44, 44] = 1.0
x[45, 45] = 1.0
x[46, 46] = 1.0
x[47, 47] = 1.0
x[48, 48] = 1.0
x[49, 49] = 1.0
x[50, 50] = 1.0
fixed costs = 367500.0
assignment costs = 624071.4500000001
warehousing costs = 1445.9737010841034
total cost = 625517.4237010842
